;test regex URL_2= URL_2.replaceAll("[&][a-zA-Z0-9._%+-]{1,}[=]","").concat(URL_1.split("?")[1] );
(declare-const X String)
(assert (str.in_re X (re.++ (str.to_re "U") (re.++ (str.to_re "R") (re.++ (str.to_re "L") (re.++ (str.to_re "_") (re.++ (str.to_re "2") (re.++ (str.to_re "=") (re.++ (str.to_re " ") (re.++ (str.to_re "U") (re.++ (str.to_re "R") (re.++ (str.to_re "L") (re.++ (str.to_re "_") (re.++ (str.to_re "2") (re.++ (re.diff re.allchar (str.to_re "\n")) (re.++ (str.to_re "r") (re.++ (str.to_re "e") (re.++ (str.to_re "p") (re.++ (str.to_re "l") (re.++ (str.to_re "a") (re.++ (str.to_re "c") (re.++ (str.to_re "e") (re.++ (str.to_re "A") (re.++ (str.to_re "l") (re.++ (str.to_re "l") (re.++ (re.++ (re.++ (str.to_re "\u{22}") (re.++ (str.to_re "&") (re.++ (re.++ (re.* (re.union (re.range "a" "z") (re.union (re.range "A" "Z") (re.union (re.range "0" "9") (re.union (str.to_re ".") (re.union (str.to_re "_") (re.union (str.to_re "%") (re.union (str.to_re "+") (str.to_re "-"))))))))) ((_ re.loop 1 1) (re.union (re.range "a" "z") (re.union (re.range "A" "Z") (re.union (re.range "0" "9") (re.union (str.to_re ".") (re.union (str.to_re "_") (re.union (str.to_re "%") (re.union (str.to_re "+") (str.to_re "-")))))))))) (re.++ (str.to_re "=") (str.to_re "\u{22}"))))) (re.++ (str.to_re ",") (re.++ (str.to_re "\u{22}") (str.to_re "\u{22}")))) (re.++ (re.diff re.allchar (str.to_re "\n")) (re.++ (str.to_re "c") (re.++ (str.to_re "o") (re.++ (str.to_re "n") (re.++ (str.to_re "c") (re.++ (str.to_re "a") (re.++ (str.to_re "t") (re.++ (re.++ (str.to_re "U") (re.++ (str.to_re "R") (re.++ (str.to_re "L") (re.++ (str.to_re "_") (re.++ (str.to_re "1") (re.++ (re.diff re.allchar (str.to_re "\n")) (re.++ (str.to_re "s") (re.++ (str.to_re "p") (re.++ (str.to_re "l") (re.++ (str.to_re "i") (re.++ (str.to_re "t") (re.++ (re.++ (re.opt (str.to_re "\u{22}")) (str.to_re "\u{22}")) (re.++ (str.to_re "1") (str.to_re " ")))))))))))))) (str.to_re ";")))))))))))))))))))))))))))))))))))
; sanitize danger characters:  < > ' " &
(assert (not (str.in_re X (re.++ re.all (re.union (str.to_re "\u{3c}") (str.to_re "\u{3e}") (str.to_re "\u{27}") (str.to_re "\u{22}") (str.to_re "\u{26}")) re.all))))
(assert (< 20 (str.len X)))
(check-sat)
(get-model)